; Automatically generated by map2smt

(set-logic HORN)




(declare-fun new4 (Bool Int) Bool)
(declare-fun new3 (Int Int Int Int Bool) Bool)
(declare-fun new2 (Int Bool) Bool)
(declare-fun new1 (Int Int Bool) Bool)
(declare-fun ff () Bool)

(assert
  (forall ( (A Bool) (B Int) )
    (=>
      (= A true)
      (new4 A B)
    )
  )
)
(assert
  (forall ( (A Bool) (B Int) (C Int) )
    (=>
      (new4 A C)
      (new4 A B)
    )
  )
)
(assert
  (forall ( (A Int) (B Int) (C Bool) )
    (=>
      (new4 C A)
      (new3 A A B B C)
    )
  )
)
(assert
  (forall ( (A Int) (B Int) (C Bool) (D Int) )
    (=>
      (new3 A A D D C)
      (new3 A A B B C)
    )
  )
)
(assert
  (forall ( (A Int) (B Bool) )
    (=>
      (= B true)
      (new2 A B)
    )
  )
)
(assert
  (forall ( (A Int) (B Bool) (C Int) )
    (=>
      (new2 C B)
      (new2 A B)
    )
  )
)
(assert
  (forall ( (A Int) (B Bool) )
    (=>
      (new2 A B)
      (new1 A A B)
    )
  )
)
(assert
  (forall ( (A Int) (B Bool) (C Int) )
    (=>
      (new3 A A C C B)
      (new1 A A B)
    )
  )
)
(assert
  (forall ( (A Bool) (B Int) )
    (=>
      (and
        (= A false)
        (new1 B B A)
      )
      ff
    )
  )
)

(assert (not ff))
(check-sat)
